sat
(model
(define-fun i_0_0 () Real 5.0)
(define-fun i_0_1 () Real (/ 1975315921794231 764482032746698))
(define-fun i_0_2 () Real 1.0)
(define-fun i_0_3 () Real (/ 23883538478974493 17200845736800705))
(define-fun A_x_0_0 () Real (/ (- 796482333562568931539119) 286680762280011750000000))
(define-fun A_x_0_1 () Real (/ (- 41617024486274549386971) 19112050818667450000000))
(define-fun A_x_0_2 () Real 0.0)
(define-fun A_x_0_3 () Real (/ 19258679542079719475707163 4300211434200176250000000))
(define-fun A_d_0_0 () Int 0)
(define-fun A_d_0_1 () Int 0)
(define-fun A_d_0_2 () Int 0)
(define-fun A_d_0_3 () Int 1)
(define-fun A_o_0_0 () Real 0.0)
(define-fun A_o_0_1 () Real 0.0)
(define-fun A_o_0_2 () Real 0.0)
(define-fun A_o_0_3 () Real (/ 19258679542079719475707163 4300211434200176250000000))
(define-fun A_x_1_0 () Real (/ 134299630712607141702068440115441 43002114342001762500000000000000))
(define-fun A_x_1_1 () Real (/ (- 65052113592795453895943747979563) 238900635233343125000000000000000))
(define-fun A_x_1_2 () Real (/ (- 27398973963741010901838071796337) 23890063523334312500000000000000))
(define-fun A_x_1_3 () Real (/ 242130154172735712150080281711997 86004228684003525000000000000000))
(define-fun A_d_1_0 () Int 1)
(define-fun A_d_1_1 () Int 0)
(define-fun A_d_1_2 () Int 0)
(define-fun A_d_1_3 () Int 1)
(define-fun A_o_1_0 () Real (/ 134299630712607141702068440115441 43002114342001762500000000000000))
(define-fun A_o_1_1 () Real 0.0)
(define-fun A_o_1_2 () Real 0.0)
(define-fun A_o_1_3 () Real (/ 242130154172735712150080281711997 86004228684003525000000000000000))
(define-fun A_x_2_0 () Real (/ 10993912579518333604536242250475447967 1720084573680070500000000000000000000))
(define-fun A_x_2_1 () Real (/ 5575909276766072473060067841072879999509 8600422868400352500000000000000000000000))
(define-fun A_x_2_2 () Real (/ (- 13194959803328083397086699095490998497) 61431591917145375000000000000000000000))
(define-fun A_A_o_0_3_0_d_3_0 () Int 0)
(define-fun A_A_o_1_3_0_d_3_0 () Int 0)
(define-fun A_x_3_0 () Real 0.0)
(define-fun A_x_3_1 () Real (/ (- 49393653620825595549621143411304359835491) 8600422868400352500000000000000000000000))
(define-fun A_x_3_2 () Real (/ (- 2840842863502879984913667456287298981229) 430021143420017625000000000000000000000))
(define-fun A_o_0_3_0 () Real (/ 10993912579518333604536242250475447967 1720084573680070500000000000000000000))
(define-fun A_o_1_3_0 () Real (/ 10993912579518333604536242250475447967 1720084573680070500000000000000000000))
(define-fun A_o_3_0 () Int 1)
(define-fun A_o_3_1 () Int 0)
(define-fun A_o_3_2 () Int 0)
(define-fun B_x_0_0 () Real (/ 387851432874482389959689 71670190570002937500000))
(define-fun B_x_0_1 () Real 0.0)
(define-fun B_x_0_2 () Real (/ 1048892193 200000000))
(define-fun B_x_0_3 () Real (/ 19267119573184565776212413 4300211434200176250000000))
(define-fun B_d_0_0 () Int 1)
(define-fun B_d_0_1 () Int 0)
(define-fun B_d_0_2 () Int 1)
(define-fun B_d_0_3 () Int 1)
(define-fun B_o_0_0 () Real (/ 387851432874482389959689 71670190570002937500000))
(define-fun B_o_0_1 () Real 0.0)
(define-fun B_o_0_2 () Real (/ 1048892193 200000000))
(define-fun B_o_0_3 () Real (/ 19267119573184565776212413 4300211434200176250000000))
(define-fun B_x_1_0 () Real (/ 622961494322989961314463624635799 172008457368007050000000000000000))
(define-fun B_x_1_1 () Real (/ 117665940153587107164912893960837 238900635233343125000000000000000))
(define-fun B_x_1_2 () Real (/ 191827048184524152206143399065841 81908789222860500000000000000000))
(define-fun B_x_1_3 () Real (/ (- 513198429350697673750369146867707) 172008457368007050000000000000000))
(define-fun B_d_1_0 () Int 1)
(define-fun B_d_1_1 () Int 1)
(define-fun B_d_1_2 () Int 1)
(define-fun B_d_1_3 () Int 0)
(define-fun B_o_1_0 () Real (/ 622961494322989961314463624635799 172008457368007050000000000000000))
(define-fun B_o_1_1 () Real (/ 117665940153587107164912893960837 238900635233343125000000000000000))
(define-fun B_o_1_2 () Real (/ 191827048184524152206143399065841 81908789222860500000000000000000))
(define-fun B_o_1_3 () Real 0.0)
(define-fun B_x_2_0 () Real (/ 60743171255194625653940321723211038670677 43002114342001762500000000000000000000000))
(define-fun B_x_2_1 () Real (/ 726309162047246704089456730349905553109461 430021143420017625000000000000000000000000))
(define-fun B_x_2_2 () Real (/ 247873896558878247260783595579440764225553 143340381140005875000000000000000000000000))
(define-fun B_B_o_0_3_0_d_3_0 () Int 1)
(define-fun B_B_o_1_3_0_d_3_0 () Int 1)
(define-fun B_x_3_0 () Real (/ (- 136189977124688485242947569506211905969889) 430021143420017625000000000000000000000000))
(define-fun B_x_3_1 () Real (/ (- 8656263814694018846447028194208369783599) 215010571710008812500000000000000000000000))
(define-fun B_x_3_2 () Real 0.0)
(define-fun B_o_0_3_0 () Real (/ 726309162047246704089456730349905553109461 430021143420017625000000000000000000000000))
(define-fun B_o_1_3_0 () Real (/ 247873896558878247260783595579440764225553 143340381140005875000000000000000000000000))
(define-fun B_o_3_0 () Int 0)
(define-fun B_o_3_1 () Int 0)
(define-fun B_o_3_2 () Int 1)
(define-fun E_x_0_0 () Real 1.0)
(define-fun E_x_0_1 () Real 0.0)
(define-fun E_x_0_2 () Real (- 1.0))
(define-fun E_dg_0_0 () Int 1)
(define-fun E_dl_0_0 () Int 0)
(define-fun E_dg_0_1 () Int 0)
(define-fun E_dl_0_1 () Int 0)
(define-fun E_dg_0_2 () Int 0)
(define-fun E_dl_0_2 () Int 1)
)
expr::ExprManager::EQUAL, 31
expr::ExprManager::LEQ, 185
expr::ExprManager::LT, 12
expr::ExprManager::MULT, 184
expr::ExprManager::PLUS, 100
expr::ExprManager::UMINUS, 147
expr::ExprManager::VARIABLE:integer type, 32
expr::ExprManager::VARIABLE:real type, 55
FirstOrderModel::constantTermsCount, 0
FirstOrderModel::functionTermsCount, 0
FirstOrderModel::mergesCount, 56
FirstOrderModel::termsCount, 78
Instantiate::Duplicate_Inst, 0
Instantiate::Duplicate_Inst_Entailed, 0
Instantiate::Duplicate_Inst_Eq, 0
Instantiate::Duplicate_Inst_Model_True, 0
Instantiate::Instantiations_Total, 0
QuantConflictFind::Entailment_Checks, 0
QuantConflictFind::Inst_Rounds, 0
QuantifiersEngine::Instantiations_Auto_Gen, 0
QuantifiersEngine::Instantiations_Cbqi, 0
QuantifiersEngine::Instantiations_Fmf_Exh, 0
QuantifiersEngine::Instantiations_Fmf_Mbqi, 0
QuantifiersEngine::Instantiations_Guess, 0
QuantifiersEngine::Instantiations_Qcf_Conflict, 0
QuantifiersEngine::Instantiations_Qcf_Prop, 0
QuantifiersEngine::Instantiations_Rewrite_Rules, 0
QuantifiersEngine::Instantiations_User_Patterns, 0
QuantifiersEngine::Multi_Trigger_Instantiations, 0
QuantifiersEngine::Num_Quantifiers, 0
QuantifiersEngine::Reductions_Alpha_Equivalence, 0
QuantifiersEngine::Rounds_Instantiation_Full, 0
QuantifiersEngine::Rounds_Instantiation_Last_Call, 0
QuantifiersEngine::Triggers, 0
QuantifiersEngine::Triggers_Multi, 0
QuantifiersEngine::Triggers_Simple, 0
SharedTermsDatabase::constantTermsCount, 0
SharedTermsDatabase::functionTermsCount, 5
SharedTermsDatabase::mergesCount, 127
SharedTermsDatabase::termsCount, 69
TheoryEngine::combineTheoriesTime, 0.000013
decision::jh::giveup, 0
decision::jh::helpfulness, 110
decision::jh::time, 0.002121
preprocessing::apply-substs, 0.014037
preprocessing::apply-to-const, 0.000000
preprocessing::bool-to-bv, 0.000000
preprocessing::bv-abstraction, 0.000000
preprocessing::bv-ackermann, 0.000000
preprocessing::bv-eager-atoms, 0.000000
preprocessing::bv-gauss, 0.000000
preprocessing::bv-intro-pow2, 0.000000
preprocessing::bv-to-bool, 0.000000
preprocessing::ext-rew-pre, 0.000000
preprocessing::global-negate, 0.000000
preprocessing::int-to-bv, 0.000000
preprocessing::ite-removal, 0.001707
preprocessing::ite-simp, 0.000000
preprocessing::miplib-trick, 0.000000
preprocessing::nl-ext-purify, 0.000000
preprocessing::non-clausal-simp, 0.037241
preprocessing::passes::BVToBool::NumAtomsLifted, 0
preprocessing::passes::BVToBool::NumTermsForcedLifted, 0
preprocessing::passes::BVToBool::NumTermsLifted, 0
preprocessing::passes::BoolToBV::NumIteToBvite, 0
preprocessing::passes::ITESimp::ArithSubstitutionsAdded, 0
preprocessing::passes::MipLibTrick::numMiplibAssertionsRemoved, 0
preprocessing::passes::NonClausalSimp::NumConstantProps, 0
preprocessing::pseudo-boolean-processor, 0.000000
preprocessing::quantifier-macros, 0.000000
preprocessing::quantifiers-preprocess, 0.000033
preprocessing::real-to-int, 0.000000
preprocessing::rewrite, 0.000000
preprocessing::sep-skolem-emp, 0.000000
preprocessing::sort-inference, 0.000000
preprocessing::static-learning, 0.005566
preprocessing::sygus-abduct, 0.000000
preprocessing::sygus-infer, 0.000000
preprocessing::sym-break, 0.000000
preprocessing::synth-rr, 0.000000
preprocessing::theory-preprocess, 0.017155
preprocessing::unconstrained-simplifier, 0.000000
preprocessor::number of unconstrained elims, 0
proof::ProofManager::proofProductionTime, 0.000000
prop::theoryproxy::replayedDecisions, 0
sat::clauses_literals, 0
sat::conflicts, 3
sat::decisions, 110
sat::learnts_literals, 269
sat::max_literals, 12
sat::propagations, 367
sat::rnd_decisions, 0
sat::starts, 1
sat::tot_literals, 11
smt::SmtEngine::checkModelTime, 0.000000
smt::SmtEngine::checkUnsatCoreTime, 0.000000
smt::SmtEngine::cnfConversionTime, 0.024422
smt::SmtEngine::definitionExpansionTime, 0.001242
smt::SmtEngine::lfscCheckProofTime, 0.000000
smt::SmtEngine::numAssertionsPostITERemoval, 229
smt::SmtEngine::numAssertionsPreITERemoval, 229
smt::SmtEngine::numConstantProps, 0
smt::SmtEngine::processAssertionsTime, 0.103177
smt::SmtEngine::proofsSize, 0
smt::SmtEngine::pushPopTime, 0.000000
smt::SmtEngine::resourceUnitsUsed, 17146
smt::SmtEngine::simplifiedToFalse, 0
smt::SmtEngine::solveTime, 1.860118
theory::QuantifiersEngine::time, 0.000021
theory::QuantifiersEngine::time_ematching, 0.000000
theory::QuantifiersEngine::time_qcf, 0.000000
theory::arith::ArithCongruenceManager::constantTermsCount, 0
theory::arith::ArithCongruenceManager::functionTermsCount, 5
theory::arith::ArithCongruenceManager::mergesCount, 150
theory::arith::ArithCongruenceManager::termsCount, 69
theory::arith::AssertLowerConflicts, 0
theory::arith::AssertUpperConflicts, 0
theory::arith::AuxiliaryVariables, 122
theory::arith::DisequalityConflicts, 0
theory::arith::DisequalitySplits, 0
theory::arith::FC::Construction, 0.000000
theory::arith::FC::FoundSat, 0
theory::arith::FC::FoundUnsat, 0
theory::arith::FC::Missed, 0
theory::arith::FC::Timer, 0.000000
theory::arith::FC::UpdateConflicts, 0
theory::arith::FC::initialProcessTime, 0.000000
theory::arith::FC::lastPivots, "0"
theory::arith::FC::selectUpdateForDualLike, 0.000000
theory::arith::FC::selectUpdateForPrimal, 0.000000
theory::arith::SOI::ConfMin::num, 0
theory::arith::SOI::Conflict::Minimization, 0.000000
theory::arith::SOI::Construction, 0.000000
theory::arith::SOI::FoundSat, 0
theory::arith::SOI::FoundUnsat, 0
theory::arith::SOI::HasToBeMin, 0
theory::arith::SOI::MaybeNotMin, 0
theory::arith::SOI::Missed, 0
theory::arith::SOI::Time, 0.000000
theory::arith::SOI::UpdateConflicts, 0
theory::arith::SOI::initialProcessTime, 0.000000
theory::arith::SOI::lastPivots, "0"
theory::arith::SOI::selectSOI, 0.000000
theory::arith::UserVariables, 56
theory::arith::adjTime, 0.307675
theory::arith::attempt::conflicts, 0
theory::arith::attempt::queueTime, 0.000000
theory::arith::attempt::searchTime, 0.000000
theory::arith::bound::boundComputations, 0
theory::arith::bound::boundPropagations, 0
theory::arith::bound::time, 0.006367
theory::arith::cd::unatePropagateCalls, 337
theory::arith::cd::unatePropagateImplications, 41
theory::arith::checkTime, 1.843778
theory::arith::computeCareGraphTime, 0.000000
theory::arith::conflicts, 69
theory::arith::congruence::conflicts, 0
theory::arith::congruence::equalsConstantCalls, 145
theory::arith::congruence::propagateConstraints, 0
theory::arith::congruence::propagations, 150
theory::arith::congruence::watchedVariableIsNotZero, 10
theory::arith::congruence::watchedVariableIsZero, 0
theory::arith::congruence::watchedVariables, 5
theory::arith::currSetToSmaller, 0
theory::arith::dio::conflictCalls, 30
theory::arith::dio::conflictTimer, 0.005833
theory::arith::dio::conflicts, 0
theory::arith::dio::cutCalls, 23
theory::arith::dio::cutTimer, 0.033013
theory::arith::dio::cuts, 4
theory::arith::dual::UpdateConflicts, 0
theory::arith::dual::findConflictOnTheQueueTime, 0.022984
theory::arith::dual::lastPivots, "0"
theory::arith::dual::recentViolationCatches, 69
theory::arith::dual::searchTime, 1.726696
theory::arith::dual::simplexConflicts, 0
theory::arith::externalBranchAndBounds, 26
theory::arith::forcing::time, 0.000000
theory::arith::initialTableauSize, 631
theory::arith::iteConstantApplications, 0
theory::arith::iteMinMaxApplications, 0
theory::arith::lemmas, 76
theory::arith::newPropTimer, 0.000237
theory::arith::pivotTime, 1.702600
theory::arith::pivots, 898
theory::arith::pivots::sat, "[]"
theory::arith::pivots::unknown, "[]"
theory::arith::pivots::unsat, "[]"
theory::arith::ppRewriteTimer, 0.001916
theory::arith::pqueue::enqueues, 0
theory::arith::pqueue::enqueuesCollection, 0
theory::arith::pqueue::enqueuesCollectionDuplicates, 0
theory::arith::pqueue::enqueuesDiffMode, 0
theory::arith::pqueue::enqueuesVarOrderMode, 0
theory::arith::pqueue::enqueuesVarOrderModeDuplicates, 0
theory::arith::presolveTime, 0.000520
theory::arith::propagations, 128
theory::arith::requirePhase, 0
theory::arith::restartDemands, 0
theory::arith::restartTimer, 0.000000
theory::arith::simplifyTimer, 0.000270
theory::arith::smallerSetToCurr, 0
theory::arith::staticLearningTimer, 0.004536
theory::arith::status::avgUnknownsInARow, 0.000000
theory::arith::status::commitsOnConflicts, 26
theory::arith::status::maxUnknownsInARow, 0
theory::arith::status::nontrivialSatChecks, 214
theory::arith::status::revertsOnConflicts, 0
theory::arith::status::unknowns, 0
theory::arith::updates, 930
theory::arith::weakening::attempts, 69
theory::arith::weakening::success, 13
theory::arith::weakening::time, 0.004779
theory::arith::weakening::total, 21
theory::arith::z::approx::cuts::branch::attempted, 0
theory::arith::z::approx::cuts::gmi::attempted, 0
theory::arith::z::approx::cuts::mir::attempted, 0
theory::arith::z::approx::cuts::proofs, 0
theory::arith::z::approx::cuts::proofs::failed, 0
theory::arith::z::approx::cuts::reconstructed, 0
theory::arith::z::approx::cuts::reconstructed::failed, 0
theory::arith::z::approx::exhausted::branches, 0
theory::arith::z::approx::exhausted::exec, 0
theory::arith::z::approx::exhausted::pivots, 0
theory::arith::z::approx::external::branches, 0
theory::arith::z::approx::external::calls, 0
theory::arith::z::approx::external::cuts, 0
theory::arith::z::approx::external::cuts::rejected, 0
theory::arith::z::approx::inSolverInteger, 0
theory::arith::z::approx::lp::timer, 0.000000
theory::arith::z::approx::mip::timer, 0.000000
theory::arith::z::approx::replay::cuts::rejected, 0
theory::arith::z::approx::replay::log::timer, 0.000000
theory::arith::z::approx::replay::rec, 0
theory::arith::z::approx::replay::rec::branch::closefailures, 0
theory::arith::z::approx::replay::rec::branch::skips, 0
theory::arith::z::approx::replay::rec::earlyexit, 0
theory::arith::z::approx::replay::rec::escalation, 0
theory::arith::z::approx::replay::rec::leaf::closefailures, 0
theory::arith::z::approx::replay::simplex::timer, 0.000000
theory::arith::z::approxDisabled, 0
theory::arith::z::arith::cuts::applyRowsDeleted, 0
theory::arith::z::arith::paniclemmas, 0
theory::arith::z::arith::relax::calls, 0
theory::arith::z::arith::relax::exhausted, 0
theory::arith::z::arith::relax::feasible::failures, 0
theory::arith::z::arith::relax::feasible::res, 0
theory::arith::z::arith::relax::infeasible, 0
theory::arith::z::arith::relax::infeasible::failures, 0
theory::arith::z::arith::relax::other, 0
theory::arith::z::mip::branch::proof::failed, 0
theory::arith::z::mip::proofs::attempted, 0
theory::arith::z::mip::proofs::successful, 0
theory::arith::z::replayAttemptFailed, 0
theory::arith::z::solveInt::calls, 0
theory::arith::z::solveInt::calls::standardEffort, 0
theory::arith::z::solveInt::models::attempts, 0
theory::arith::z::solveInt::timer, 0.000000
theory::arith::z::solveRealRelax::timer, 1.736371
theory::arith::zzz::arith::substitutions, 0
theory::arith::zzz::solveInt::models::successful, 0
theory::arrays::avgInStoresListLength, 0.000000
theory::arrays::avgIndexListLength, 0.000000
theory::arrays::avgStoresListLength, 0.000000
theory::arrays::callsMergeInfo, 0
theory::arrays::checkTime, 0.000027
theory::arrays::computeCareGraphTime, 0.000004
theory::arrays::conflicts, 0
theory::arrays::constantTermsCount, 0
theory::arrays::functionTermsCount, 0
theory::arrays::infoTableSize, 0
theory::arrays::lemmas, 0
theory::arrays::listsCount, 0
theory::arrays::maxList, 0
theory::arrays::mayEqual::constantTermsCount, 0
theory::arrays::mayEqual::functionTermsCount, 0
theory::arrays::mayEqual::mergesCount, 0
theory::arrays::mayEqual::termsCount, 2
theory::arrays::mergeInfoTimer, 0.000000
theory::arrays::mergesCount, 0
theory::arrays::number of Ext lemmas, 0
theory::arrays::number of Row lemmas, 0
theory::arrays::number of calls to setNonLinear, 0
theory::arrays::number of explanations, 0
theory::arrays::number of getModelVal conflicts, 0
theory::arrays::number of getModelVal splits, 0
theory::arrays::number of propagations, 0
theory::arrays::number of setModelVal conflicts, 0
theory::arrays::number of setModelVal splits, 0
theory::arrays::number of shared array var splits, 0
theory::arrays::pp::constantTermsCount, 0
theory::arrays::pp::functionTermsCount, 0
theory::arrays::pp::mergesCount, 0
theory::arrays::pp::termsCount, 2
theory::arrays::propagations, 0
theory::arrays::requirePhase, 0
theory::arrays::restartDemands, 0
theory::arrays::termsCount, 2
theory::bool::checkTime, 0.000000
theory::bool::computeCareGraphTime, 0.000000
theory::bool::conflicts, 0
theory::bool::lemmas, 0
theory::bool::propagations, 0
theory::bool::requirePhase, 0
theory::bool::restartDemands, 0
theory::builtin::checkTime, 0.000000
theory::builtin::computeCareGraphTime, 0.000000
theory::builtin::conflicts, 0
theory::builtin::lemmas, 0
theory::builtin::propagations, 0
theory::builtin::requirePhase, 0
theory::builtin::restartDemands, 0
theory::bv::AvgBVConflictSize, 0.000000
theory::bv::BitblastSolver::NumCallsToCheck, 0
theory::bv::BitblastSolver::NumTimesLemmasBB, 0
theory::bv::CoreSolver::NumCallsToCheck, 0
theory::bv::CoreSolver::SlicerEnabled, "0"
theory::bv::NumFullCheckCalls, 0
theory::bv::NumMultSliceApplied, 0
theory::bv::NumSolveSubstitutions, 0
theory::bv::NumStandardCheckCalls, 0
theory::bv::abstraction::AbstractionTime, 0.000000
theory::bv::abstraction::NumArgsSkolemized, 0
theory::bv::abstraction::NumFunctionsAbstracted, 0
theory::bv::algebraic::BitblastTimer, 0.000000
theory::bv::algebraic::NumAtomSatClauses, 0
theory::bv::algebraic::NumBitblastedAtoms, 0
theory::bv::algebraic::NumBitblastedTerms, 0
theory::bv::algebraic::NumBitblastingPropagations, 0
theory::bv::algebraic::NumCallsToCheck, 0
theory::bv::algebraic::NumExplainedPropagations, 0
theory::bv::algebraic::NumSat, 0
theory::bv::algebraic::NumSimplifiesToFalse, 0
theory::bv::algebraic::NumSimplifiesToTrue, 0
theory::bv::algebraic::NumTermSatClauses, 0
theory::bv::algebraic::NumUnknown, 0
theory::bv::algebraic::NumUnsat, 0
theory::bv::algebraic::SolveTime, 0.000000
theory::bv::algebraic::UseHeuristic, 0.200000
theory::bv::algebraic::bvminisat::calls_to_solve, 0
theory::bv::algebraic::bvminisat::clauses_literals, 0
theory::bv::algebraic::bvminisat::conflicts, 0
theory::bv::algebraic::bvminisat::decisions, 0
theory::bv::algebraic::bvminisat::eliminated_vars, 0
theory::bv::algebraic::bvminisat::learnts_literals, 0
theory::bv::algebraic::bvminisat::max_literals, 0
theory::bv::algebraic::bvminisat::propagations, 0
theory::bv::algebraic::bvminisat::rnd_decisions, 0
theory::bv::algebraic::bvminisat::solve_time, 0.000000
theory::bv::algebraic::bvminisat::starts, 0
theory::bv::algebraic::bvminisat::tot_literals, 0
theory::bv::checkTime, 0.000000
theory::bv::computeCareGraphTime, 0.000000
theory::bv::conflicts, 0
theory::bv::ee::constantTermsCount, 0
theory::bv::ee::functionTermsCount, 0
theory::bv::ee::mergesCount, 0
theory::bv::ee::termsCount, 2
theory::bv::inequality::NumCallsToCheck, 0
theory::bv::inequality::SolveTime, 0.000000
theory::bv::lazy::BitblastTimer, 0.000000
theory::bv::lazy::NumAtomSatClauses, 0
theory::bv::lazy::NumBitblastedAtoms, 0
theory::bv::lazy::NumBitblastedTerms, 0
theory::bv::lazy::NumBitblastingPropagations, 0
theory::bv::lazy::NumExplainedPropagations, 0
theory::bv::lazy::NumTermSatClauses, 0
theory::bv::lazy::bvminisat::calls_to_solve, 0
theory::bv::lazy::bvminisat::clauses_literals, 0
theory::bv::lazy::bvminisat::conflicts, 0
theory::bv::lazy::bvminisat::decisions, 0
theory::bv::lazy::bvminisat::eliminated_vars, 0
theory::bv::lazy::bvminisat::learnts_literals, 0
theory::bv::lazy::bvminisat::max_literals, 0
theory::bv::lazy::bvminisat::propagations, 0
theory::bv::lazy::bvminisat::rnd_decisions, 0
theory::bv::lazy::bvminisat::solve_time, 0.000000
theory::bv::lazy::bvminisat::starts, 0
theory::bv::lazy::bvminisat::tot_literals, 0
theory::bv::lemmas, 0
theory::bv::propagations, 0
theory::bv::requirePhase, 0
theory::bv::restartDemands, 0
theory::bv::slicer::AverageFindDepth, 0.000000
theory::bv::slicer::NumEqualitiesAdded, "0"
theory::bv::slicer::NumMerges, 0
theory::bv::slicer::NumRepresentatives, 0
theory::bv::slicer::NumSplits, 0
theory::bv::solveTimer, 0.000000
theory::bv::weightComputationTimer, 0.000000
theory::datatypes::checkTime, 0.000000
theory::datatypes::computeCareGraphTime, 0.000000
theory::datatypes::conflicts, 0
theory::datatypes::constantTermsCount, 0
theory::datatypes::functionTermsCount, 0
theory::datatypes::lemmas, 0
theory::datatypes::mergesCount, 0
theory::datatypes::propagations, 0
theory::datatypes::requirePhase, 0
theory::datatypes::restartDemands, 0
theory::datatypes::termsCount, 2
theory::fp::checkTime, 0.000000
theory::fp::computeCareGraphTime, 0.000000
theory::fp::conflicts, 0
theory::fp::ee::constantTermsCount, 0
theory::fp::ee::functionTermsCount, 0
theory::fp::ee::mergesCount, 0
theory::fp::ee::termsCount, 2
theory::fp::lemmas, 0
theory::fp::propagations, 0
theory::fp::requirePhase, 0
theory::fp::restartDemands, 0
theory::master::constantTermsCount, 0
theory::master::functionTermsCount, 5
theory::master::mergesCount, 150
theory::master::termsCount, 69
theory::quantifiers::checkTime, 0.000042
theory::quantifiers::computeCareGraphTime, 0.000000
theory::quantifiers::conflicts, 0
theory::quantifiers::lemmas, 0
theory::quantifiers::propagations, 0
theory::quantifiers::requirePhase, 0
theory::quantifiers::restartDemands, 0
theory::sep::checkTime, 0.000000
theory::sep::computeCareGraphTime, 0.000000
theory::sep::conflicts, 0
theory::sep::ee::constantTermsCount, 0
theory::sep::ee::functionTermsCount, 0
theory::sep::ee::mergesCount, 0
theory::sep::ee::termsCount, 2
theory::sep::lemmas, 0
theory::sep::propagations, 0
theory::sep::requirePhase, 0
theory::sep::restartDemands, 0
theory::sets::checkTime, 0.000000
theory::sets::computeCareGraphTime, 0.000000
theory::sets::conflicts, 0
theory::sets::ee::constantTermsCount, 0
theory::sets::ee::functionTermsCount, 0
theory::sets::ee::mergesCount, 0
theory::sets::ee::termsCount, 2
theory::sets::getModelValueTime, 0.000000
theory::sets::leaves, 0
theory::sets::leaves-max, 0
theory::sets::lemmas, 0
theory::sets::lemmas::disequality, 0
theory::sets::lemmas::member, 0
theory::sets::merge1or2, 0
theory::sets::merge3, 0
theory::sets::merge_nodes::time, 0.000000
theory::sets::processCard2::time, 0.000000
theory::sets::propagations, 0
theory::sets::requirePhase, 0
theory::sets::restartDemands, 0
theory::sets::vertices, 0
theory::sets::vertices-max, 0
theory::shared_terms, 0
theory::strings::NumOfDiseqSplits, 0
theory::strings::NumOfEqSplits, 0
theory::strings::NumOfLoops, 0
theory::strings::NumOfSplitOnDemands, 0
theory::strings::checkTime, 0.000000
theory::strings::computeCareGraphTime, 0.000000
theory::strings::conflicts, 0
theory::strings::constantTermsCount, 0
theory::strings::functionTermsCount, 0
theory::strings::lemmas, 0
theory::strings::mergesCount, 0
theory::strings::propagations, 0
theory::strings::requirePhase, 0
theory::strings::restartDemands, 0
theory::strings::termsCount, 2
theory::uf::checkTime, 0.000480
theory::uf::computeCareGraphTime, 0.000008
theory::uf::conflicts, 0
theory::uf::ee::constantTermsCount, 0
theory::uf::ee::functionTermsCount, 5
theory::uf::ee::mergesCount, 127
theory::uf::ee::termsCount, 69
theory::uf::lemmas, 0
theory::uf::propagations, 127
theory::uf::requirePhase, 0
theory::uf::restartDemands, 0
theory::uf::symmetry_breaker::clauses, 0
theory::uf::symmetry_breaker::permutationSetsConsidered, 0
theory::uf::symmetry_breaker::permutationSetsInvariant, 0
theory::uf::symmetry_breaker::timers::initNormalization, 0.000000
theory::uf::symmetry_breaker::timers::invariantByPermutations, 0.000000
theory::uf::symmetry_breaker::timers::selectTerms, 0.000000
theory::uf::symmetry_breaker::units, 0
driver::filename, smtlib_files/balance_scale_lin_eq_no_ia.smt2
driver::sat/unsat, sat
driver::totalTime, 2.001722412
